certificates/rado_a11_c225_N34.cnf
c Rad2 upper bound instance: x1 + 11*x2 - x3 = 225, interval [1,34]
p cnf 34 208
1 7 21 0
-1 -7 -21 0
1 18 22 0
-1 -18 -22 0
1 23 29 0
-1 -23 -29 0
2 8 21 0
-2 -8 -21 0
2 19 22 0
-2 -19 -22 0
2 23 30 0
-2 -23 -30 0
3 9 21 0
-3 -9 -21 0
3 20 22 0
-3 -20 -22 0
3 23 31 0
-3 -23 -31 0
4 10 21 0
-4 -10 -21 0
4 21 22 0
-4 -21 -22 0
4 23 32 0
-4 -23 -32 0
5 11 21 0
-5 -11 -21 0
5 22 0
-5 -22 0
5 23 33 0
-5 -23 -33 0
1 6 20 0
-1 -6 -20 0
6 12 21 0
-6 -12 -21 0
6 22 23 0
-6 -22 -23 0
6 23 34 0
-6 -23 -34 0
2 7 20 0
-2 -7 -20 0
7 13 21 0
-7 -13 -21 0
7 22 24 0
-7 -22 -24 0
3 8 20 0
-3 -8 -20 0
8 14 21 0
-8 -14 -21 0
8 22 25 0
-8 -22 -25 0
4 9 20 0
-4 -9 -20 0
9 15 21 0
-9 -15 -21 0
9 22 26 0
-9 -22 -26 0
5 10 20 0
-5 -10 -20 0
10 16 21 0
-10 -16 -21 0
10 22 27 0
-10 -22 -27 0
6 11 20 0
-6 -11 -20 0
11 17 21 0
-11 -17 -21 0
11 22 28 0
-11 -22 -28 0
7 12 20 0
-7 -12 -20 0
12 18 21 0
-12 -18 -21 0
12 22 29 0
-12 -22 -29 0
8 13 20 0
-8 -13 -20 0
13 19 21 0
-13 -19 -21 0
13 22 30 0
-13 -22 -30 0
9 14 20 0
-9 -14 -20 0
14 20 21 0
-14 -20 -21 0
14 22 31 0
-14 -22 -31 0
10 15 20 0
-10 -15 -20 0
15 21 0
-15 -21 0
15 22 32 0
-15 -22 -32 0
11 16 20 0
-11 -16 -20 0
16 21 22 0
-16 -21 -22 0
16 22 33 0
-16 -22 -33 0
1 17 19 0
-1 -17 -19 0
12 17 20 0
-12 -17 -20 0
17 21 23 0
-17 -21 -23 0
17 22 34 0
-17 -22 -34 0
2 18 19 0
-2 -18 -19 0
13 18 20 0
-13 -18 -20 0
18 21 24 0
-18 -21 -24 0
3 19 0
-3 -19 0
14 19 20 0
-14 -19 -20 0
19 21 25 0
-19 -21 -25 0
4 19 20 0
-4 -19 -20 0
15 20 0
-15 -20 0
20 21 26 0
-20 -21 -26 0
5 19 21 0
-5 -19 -21 0
16 20 21 0
-16 -20 -21 0
21 27 0
-21 -27 0
6 19 22 0
-6 -19 -22 0
17 20 22 0
-17 -20 -22 0
21 22 28 0
-21 -22 -28 0
7 19 23 0
-7 -19 -23 0
18 20 23 0
-18 -20 -23 0
21 23 29 0
-21 -23 -29 0
8 19 24 0
-8 -19 -24 0
19 20 24 0
-19 -20 -24 0
21 24 30 0
-21 -24 -30 0
9 19 25 0
-9 -19 -25 0
20 25 0
-20 -25 0
21 25 31 0
-21 -25 -31 0
10 19 26 0
-10 -19 -26 0
21 26 32 0
-21 -26 -32 0
11 19 27 0
-11 -19 -27 0
20 22 27 0
-20 -22 -27 0
21 27 33 0
-21 -27 -33 0
1 18 28 0
-1 -18 -28 0
12 19 28 0
-12 -19 -28 0
20 23 28 0
-20 -23 -28 0
21 28 34 0
-21 -28 -34 0
2 18 29 0
-2 -18 -29 0
13 19 29 0
-13 -19 -29 0
20 24 29 0
-20 -24 -29 0
3 18 30 0
-3 -18 -30 0
14 19 30 0
-14 -19 -30 0
20 25 30 0
-20 -25 -30 0
4 18 31 0
-4 -18 -31 0
15 19 31 0
-15 -19 -31 0
20 26 31 0
-20 -26 -31 0
5 18 32 0
-5 -18 -32 0
16 19 32 0
-16 -19 -32 0
20 27 32 0
-20 -27 -32 0
6 18 33 0
-6 -18 -33 0
17 19 33 0
-17 -19 -33 0
20 28 33 0
-20 -28 -33 0
7 18 34 0
-7 -18 -34 0
18 19 34 0
-18 -19 -34 0
20 29 34 0
-20 -29 -34 0
