certificates/rado_a11_c225_N34.drat
20 -31 -32 -33 0
23 29 -20 0
-31 -32 -33 -34 0
-23 31 -32 -33 0
23 29 0
d 23 21 29 0
-32 -33 -34 0
d -31 -32 -33 -34 0
23 31 -34 0
5 32 -34 0
-33 -34 0
d -32 -33 -34 0
23 -34 0
d 23 31 -34 0
-34 0
-18 -23 0
d -18 -20 -23 0
-23 0
6 0
29 0
18 0
-33 0
-2 0
5 0
30 0
-22 0
-32 0
-3 0
17 0
16 0
19 0
4 0
15 0
31 0
20 0
-1 0
-12 0
-11 0
-21 0
-13 0
-14 0
0
